Minimize
  obj: x0 + x1 + x2 + x3 + x4 + x5 + x6 + x7

Subject To
  c0: x3 + x4 + x6 + x7 = 20
  c1: x0 + x2 + x4 + x5 + x6 + x7 = 47
  c2: x0 + x2 + x4 + x5 + x6 = 45
  c3: x0 + x1 + x3 + x4 + x5 = 43
  c4: x0 + x4 + x5 + x6 = 33
  c5: x2 + x4 + x5 + x7 = 25
  c6: x0 + x1 + x2 + x4 + x7 = 39
  c7: x4 + x5 + x7 = 13
  c8: x2 + x3 + x5 + x7 = 32
  c9: x0 + x4 + x5 + x6 + x7 = 35

Bounds
  x0 >= 0
  x1 >= 0
  x2 >= 0
  x3 >= 0
  x4 >= 0
  x5 >= 0
  x6 >= 0
  x7 >= 0

Generals
  x0 x1 x2 x3 x4 x5 x6 x7

End
